50
4953

280 734
743 474
444 768
611 759
506 273
588 713
389 330
205 615
723 865
904 349
74 190
809 797
746 726
691 621
971 37
624 643
762 216
466 438
309 667
248 973
945 632
452 834
668 14
500 22
754 91
562 663
287 661
5 793
981 712
754 448
161 949
442 74
599 551
738 698
83 166
858 733
568 683
387 336
441 990
335 585
187 361
158 48
336 993
791 226
788 321
747 740
979 248
160 899
862 297
625 839
